
Welcome to IBM(R) ILOG(R) CPLEX(R) Interactive Optimizer 22.1.1.0
  with Simplex, Mixed Integer & Barrier Optimizers
5725-A06 5725-A29 5724-Y48 5724-Y49 5724-Y54 5724-Y55 5655-Y21
Copyright IBM Corp. 1988, 2022.  All Rights Reserved.

Type 'help' for a list of available commands.
Type 'help' followed by a command name for more
information on commands.

CPLEX> Selected objective sense:  MINIMIZE
Selected objective  name:  00000000
Selected RHS        name:  RHS1
Selected bound      name:  BOUND
Problem 'ee.mps' read.
Read time = 0.03 sec. (3.17 ticks)
CPLEX> New value for time limit in seconds: 7200
CPLEX> New value for parallel optimization mode: -1
CPLEX> New value for default parallel thread count: 40
CPLEX> New value for mixed integer optimality gap tolerance: 1e-13
CPLEX> Version identifier: 22.1.1.0 | 2022-11-28 | 9160aff4d
CPXPARAM_Threads                                 40
CPXPARAM_Parallel                                -1
CPXPARAM_TimeLimit                               7200
CPXPARAM_MIP_Tolerances_MIPGap                   1e-13
Found incumbent of value 0.000000 after 0.00 sec. (0.31 ticks)
Tried aggregator 2 times.
MIP Presolve eliminated 183 rows and 2745 columns.
MIP Presolve modified 6090 coefficients.
Aggregator did 713 substitutions.
Reduced MIP has 3636 rows, 7840 columns, and 28952 nonzeros.
Reduced MIP has 7840 binaries, 0 generals, 0 SOSs, and 0 indicators.
Presolve time = 0.07 sec. (69.15 ticks)
Probing time = 0.03 sec. (6.05 ticks)
Tried aggregator 1 time.
Detecting symmetries...
Reduced MIP has 3636 rows, 7840 columns, and 28952 nonzeros.
Reduced MIP has 7840 binaries, 0 generals, 0 SOSs, and 0 indicators.
Presolve time = 0.02 sec. (22.10 ticks)
Probing time = 0.02 sec. (5.80 ticks)
Clique table members: 18787.
MIP emphasis: balance optimality and feasibility.
MIP search method: dynamic search.
Parallel mode: opportunistic, using up to 40 threads.
Root relaxation solution time = 0.13 sec. (120.49 ticks)

        Nodes                                         Cuts/
   Node  Left     Objective  IInf  Best Integer    Best Bound    ItCnt     Gap

*     0+    0                            0.0000  -1.54000e+13              --- 
*     0+    0                      -6.00000e+12  -1.54000e+13           156.67%
      0     0  -1.53900e+13    85  -6.00000e+12  -1.53900e+13     2146  156.50%
*     0+    0                      -1.53900e+13  -1.53900e+13             0.00%
      0     0  -1.53900e+13   168  -1.53900e+13      Cuts: 58     2792    0.00%
*     0+    0                      -1.53900e+13  -1.53900e+13             0.00%
      0     0  -1.53900e+13   251  -1.53900e+13      Cuts: 97     3779    0.00%
*     0+    0                      -1.53900e+13  -1.53900e+13             0.00%
*     0+    0                      -1.53900e+13  -1.53900e+13             0.00%
      0     0  -1.00000e+75     0  -1.53900e+13  -1.53900e+13     3779    0.00%
      0    39        cutoff        -1.53900e+13  -1.53900e+13    15799    0.00%
Elapsed time = 2.57 sec. (1169.37 ticks, tree = 0.02 MB, solutions = 6)
    556    66        cutoff        -1.53900e+13  -1.53900e+13    39285    0.00%
   1374    57  -1.53900e+13   201  -1.53900e+13  -1.53900e+13    63311    0.00%
   2073    58  -1.53900e+13    97  -1.53900e+13  -1.53900e+13    57153    0.00%
   3074    75  -1.53900e+13    97  -1.53900e+13  -1.53900e+13   151236    0.00%
   4637    94  -1.53900e+13   145  -1.53900e+13  -1.53900e+13   147545    0.00%
   6283   506        cutoff        -1.53900e+13  -1.53900e+13   236285    0.00%
   8067   755        cutoff        -1.53900e+13  -1.53900e+13   289045    0.00%
   9852  1296    infeasible        -1.53900e+13  -1.53900e+13   533647    0.00%
  11191   795        cutoff        -1.53900e+13  -1.53900e+13   302339    0.00%
  13882  1456        cutoff        -1.53900e+13  -1.53900e+13   505745    0.00%
Elapsed time = 6.32 sec. (4272.30 ticks, tree = 4.28 MB, solutions = 6)

Performing restart 1

Repeating presolve.
Tried aggregator 2 times.
MIP Presolve eliminated 655 rows and 1946 columns.
MIP Presolve added 22 rows and 0 columns.
MIP Presolve modified 2112 coefficients.
Aggregator did 325 substitutions.
Reduced MIP has 2604 rows, 5557 columns, and 20093 nonzeros.
Reduced MIP has 5557 binaries, 0 generals, 0 SOSs, and 0 indicators.
Presolve time = 0.08 sec. (84.27 ticks)
Tried aggregator 2 times.
MIP Presolve eliminated 40 rows and 49 columns.
MIP Presolve added 4 rows and 0 columns.
MIP Presolve modified 14 coefficients.
Aggregator did 6 substitutions.
Reduced MIP has 2560 rows, 5491 columns, and 19876 nonzeros.
Reduced MIP has 5491 binaries, 0 generals, 0 SOSs, and 0 indicators.
Presolve time = 0.04 sec. (33.53 ticks)
Tried aggregator 1 time.
Reduced MIP has 2560 rows, 5491 columns, and 19876 nonzeros.
Reduced MIP has 5491 binaries, 0 generals, 0 SOSs, and 0 indicators.
Presolve time = 0.03 sec. (14.27 ticks)
Represolve time = 0.30 sec. (200.56 ticks)
  13967     0  -1.53900e+13   334  -1.53900e+13      Cuts: 31   636434    0.00%
  13967     0  -1.53900e+13   318  -1.53900e+13      Cuts: 27   636759    0.00%
  13967     0  -1.53900e+13   324  -1.53900e+13      Cuts: 45   637455    0.00%
  13967     0  -1.53900e+13   346  -1.53900e+13      Cuts: 38   637820    0.00%
  13967     0  -1.53900e+13   348  -1.53900e+13      Cuts: 53   637968    0.00%
  13967    14        cutoff        -1.53900e+13  -1.53900e+13   656910    0.00%
  14305     8  -1.53900e+13   104  -1.53900e+13  -1.53900e+13   652364    0.00%

GUB cover cuts applied:  4
Clique cuts applied:  13
Cover cuts applied:  210
Mixed integer rounding cuts applied:  4
Zero-half cuts applied:  38
Lift and project cuts applied:  5
Gomory fractional cuts applied:  18

Root node processing (before b&c):
  Real time             =    1.28 sec. (1157.25 ticks)
Parallel b&c, 40 threads:
  Real time             =   11.15 sec. (7219.13 ticks)
  Sync time (average)   =    3.68 sec.
  Wait time (average)   =    0.13 sec.
                          ------------
Total (root+branch&cut) =   12.43 sec. (8376.38 ticks)

Solution pool: 8 solutions saved.

MIP - Integer optimal solution:  Objective = -1.5389998789e+13
Solution time =   12.54 sec.  Iterations = 678412  Nodes = 14318
Deterministic time = 8376.42 ticks  (668.17 ticks/sec)

CPLEX> Solution 'p9' written to file 'ee.sol'.
CPLEX> 